<instance format="XCSP3" type="CSP">
  <variables>
    <var id="x0"> 1 4 11 </var>
    <var id="x1"> 3 5 11 </var>
    <var id="x2"> 1 3..5 10 </var>
    <var id="x3"> 5 9 </var>
    <var id="x4"> 5 9 10 </var>
    <var id="x5"> 3 9 11 </var>
    <var id="x6"> 1 5 10 11 </var>
    <var id="x7"> 7 8 13 </var>
    <var id="x8"> 7..9 12 14 </var>
    <var id="x9"> 5 14 </var>
    <var id="x10"> 5 7 9 13 </var>
    <var id="x11"> 5 7 8 14 </var>
    <var id="x12"> 9 12..14 </var>
    <var id="x13"> 5 7 8 13 </var>
    <var id="x14"> 4 7 8 </var>
    <var id="x15"> 1 2 4 10 </var>
    <var id="x16"> 0..2 7 8 </var>
    <var id="x17"> 0 7 </var>
    <var id="x18"> 1 4 7 8 </var>
    <var id="x19"> 0 2 7 10 </var>
    <var id="x20"> 1 4 7 8 10 </var>
    <var id="x21"> 1 6 7 11 </var>
    <var id="x22"> 0 5 11 </var>
    <var id="x23"> 7 11 </var>
    <var id="x24"> 1 5 7 10 </var>
    <var id="x25"> 1 5 7 11 </var>
    <var id="x26"> 6 11 </var>
    <var id="x27"> 1 7 10 11 </var>
    <var id="x28"> 3 5 8 13 </var>
    <var id="x29"> 4 7 8 </var>
    <var id="x30"> 3..5 10 </var>
    <var id="x31"> 5 7 8 </var>
    <var id="x32"> 5 7 10 </var>
    <var id="x33"> 4 5 7 10 13 </var>
    <var id="x34"> 4 7 8 10 13 </var>
    <var id="x35"> 5 11 12 </var>
    <var id="x36"> 1 4 5 14 </var>
    <var id="x37"> 1 5 7 12 </var>
    <var id="x38"> 1 5 7 </var>
    <var id="x39"> 4 5 14 </var>
    <var id="x40"> 1 4 5 7 14 </var>
    <var id="x41"> 1 4 7 11 </var>
    <var id="x42"> 7 8 14 </var>
    <var id="x43"> 1 2 6 </var>
    <var id="x44"> 5..7 14 </var>
    <var id="x45"> 1 2 5 7 </var>
    <var id="x46"> 5 6 14 </var>
    <var id="x47"> 1 7 8 </var>
    <var id="x48"> 1 5 7 8 </var>
    <var id="x49"> 7 8 11 13 </var>
    <var id="x50"> 2 3 10 </var>
    <var id="x51"> 7 9 13 </var>
    <var id="x52"> 2 7 9 10 13 </var>
    <var id="x53"> 3 10 </var>
    <var id="x54"> 7 8 11 </var>
    <var id="x55"> 2 7 9 10 </var>
    <var id="x56"> 3 9 11 13 </var>
    <var id="x57"> 6 13 </var>
    <var id="x58"> 0 5 12 13 </var>
    <var id="x59"> 0 5 12 </var>
    <var id="x60"> 6 10 12 </var>
    <var id="x61"> 5 9 10 13 </var>
    <var id="x62"> 0 5 10 13 </var>
    <var id="x63"> 10 13 </var>
    <var id="x64"> 0 5 8 </var>
    <var id="x65"> 0..2 5 7 8 </var>
    <var id="x66"> 1 2 </var>
    <var id="x67"> 0 5 7 14 </var>
    <var id="x68"> 0 5 14 </var>
    <var id="x69"> 14 </var>
    <var id="x70"> 1 5 7 8 </var>
    <var id="x71"> 4 11 </var>
    <var id="x72"> 1 3..5 </var>
    <var id="x73"> 1 3 4 6 </var>
    <var id="x74"> 1 5 13 </var>
    <var id="x75"> 1 4 5 11 </var>
    <var id="x76"> 1 4 5 13 </var>
    <var id="x77"> 1 5 11 13 </var>
    <var id="x78"> 1 7 8 13 </var>
    <var id="x79"> 7..9 </var>
    <var id="x80"> 0 1 7 8 </var>
    <var id="x81"> 0 10 </var>
    <var id="x82"> 0 7 9 10 </var>
    <var id="x83"> 0 1 7 10 13 </var>
    <var id="x84"> 9 13 </var>
    <var id="x85"> 2 4 14 </var>
    <var id="x86"> 2 7 12 </var>
    <var id="x87"> 2 4 6 12 </var>
    <var id="x88"> 6 7 13 14 </var>
    <var id="x89"> 4 6 14 </var>
    <var id="x90"> 4 7 13 14 </var>
    <var id="x91"> 7 13 </var>
    <var id="x92"> 3 4 10 12 </var>
    <var id="x93"> 4 11 14 </var>
    <var id="x94"> 0 10 </var>
    <var id="x95"> 0 4 10 14 </var>
    <var id="x96"> 3 11 12 14 </var>
    <var id="x97"> 4 10 11 </var>
    <var id="x98"> 10 11 </var>
    <var id="x99"> 1 4 6 11 13 </var>
    <var id="x100"> 5 11 13 </var>
    <var id="x101"> 5 6 13 14 </var>
    <var id="x102"> 4..6 14 </var>
    <var id="x103"> 1 4 5 11 14 </var>
    <var id="x104"> 5 6 </var>
    <var id="x105"> 1 4 5 13 14 </var>
  </variables>
  <constraints>
    <group>
      <allDifferent> %... </allDifferent>
      <args> x0 x1 x2 x3 x4 x5 x6 </args>
      <args> x7 x8 x9 x10 x11 x12 x13 </args>
      <args> x14 x15 x16 x17 x18 x19 x20 </args>
      <args> x21 x22 x23 x24 x25 x26 x27 </args>
      <args> x28 x29 x30 x31 x32 x33 x34 </args>
      <args> x35 x36 x37 x38 x39 x40 x41 </args>
      <args> x42 x43 x44 x45 x46 x47 x48 </args>
      <args> x49 x50 x51 x52 x53 x54 x55 x56 </args>
      <args> x57 x58 x59 x60 x61 x62 x63 </args>
      <args> x64 x65 x66 x67 x68 x69 x70 </args>
      <args> x71 x72 x73 x74 x75 x76 x77 </args>
      <args> x78 x79 x80 x81 x82 x83 x84 </args>
      <args> x85 x86 x87 x88 x89 x90 x91 </args>
      <args> x92 x93 x94 x95 x96 x97 x98 </args>
      <args> x99 x100 x101 x102 x103 x104 x105 </args>
      <args> x0 x7 x21 x49 x57 x78 x99 </args>
      <args> x1 x22 x28 x35 x58 x64 x100 </args>
      <args> x8 x14 x23 x29 x42 x71 x79 </args>
      <args> x2 x9 x15 x30 x36 x72 x85 </args>
      <args> x16 x31 x37 x59 x65 x80 x86 </args>
      <args> x43 x50 x60 x66 x73 x87 x92 </args>
      <args> x3 x17 x44 x51 x67 x88 x101 </args>
      <args> x10 x24 x38 x45 x52 x61 x74 </args>
      <args> x39 x46 x53 x68 x81 x89 x102 </args>
      <args> x11 x18 x25 x54 x75 x93 x103 </args>
      <args> x4 x19 x32 x55 x82 x94 x104 </args>
      <args> x33 x40 x62 x76 x83 x90 x95 x105 </args>
      <args> x5 x12 x26 x56 x69 x84 x96 </args>
      <args> x20 x27 x34 x41 x47 x63 x97 </args>
      <args> x6 x13 x48 x70 x77 x91 x98 </args>
    </group>
  </constraints>
</instance>

